computational_data/real_data/solutions/penguins_trial_012_lex.sol
Optimal - objective value 7.95522400
      0 r_0                         0                       1
      1 r_1                         1                       1
      2 r_2                         0                       1
      3 r_3                         0                0.985075
      4 r_4                         0                0.985075
      5 r_5                         0                0.955224
      6 r_6                         0                0.940299
      7 r_7                         0                0.940299
      8 r_8                         0                0.940299
      9 r_9                         0                0.910448
     10 r_10                        0                0.850746
     11 r_11                        0                0.850746
     12 r_12                        0                0.835821
     13 r_13                        0                0.835821
     14 r_14                        1                0.835821
     15 r_15                        0                0.835821
     16 b_0                         1                       1
     17 b_1                         0                       1
     18 b_2                         0                       1
     19 b_3                         0                0.985075
     20 b_4                         0                0.985075
     21 b_5                         0                0.955224
     22 b_6                         0                0.940299
     23 b_7                         0                0.940299
     24 b_8                         0                0.940299
     25 b_9                         1                0.910448
     26 b_10                        1                0.850746
     27 b_11                        1                0.850746
     28 b_12                        1                0.835821
     29 b_13                        1                0.835821
     30 b_14                        0                0.835821
     31 b_15                        1                0.835821
